%
% Generated Sudoku 25x25
% Density approximation: 0.50
%
x = array2d(1..n, 1..n, [
   _,  10,   _,   _,  18,   5,  16,  21,   _,   _,  12,   _,  14,  17,  24,   _,   _,   3,   _,   8,  20,   _,   _,   _,   _,
  25,  23,   _,  12,  21,   4,  19,   _,   _,   _,   _,   _,   9,  13,   _,  22,   _,   _,  18,   _,  24,   _,   7,  17,   5,
   _,   _,  16,  15,   _,   7,  10,   _,  22,  24,   _,   _,  18,   _,   5,   _,   9,   _,   _,   _,   _,   _,  11,   _,   4,
   _,   6,   3,   4,   _,   _,   _,   _,   _,  12,   _,  15,  11,  16,   7,  20,   _,  19,   _,  21,   _,   _,   _,  10,   _,
   _,  24,   _,  14,   _,   _,  20,   _,   _,   1,   _,   _,   _,   _,   _,  11,   _,  16,   _,   _,   _,   _,   _,   _,   _,
   _,   _,   _,   _,   _,  22,  13,   _,   _,   _,  24,  23,   _,   2,  18,   _,   _,   _,   5,   9,   _,   _,  12,   1,   _,
   _,  15,  11,   _,   _,   _,   _,   _,   3,   4,   _,   _,   _,   1,   8,  13,  22,  18,  16,   _,  17,   _,  20,   _,   _,
  24,  20,   1,  21,  13,   _,   _,   _,   _,  25,   _,  10,   _,   _,   _,   2,  23,   _,   4,   _,  18,   _,   _,   9,   _,
   6,   5,   7,   _,  12,  19,   _,  18,  11,   _,  17,  13,   _,  15,   _,   _,  20,  24,   8,   3,  10,   4,  23,  16,  25,
   _,   _,  18,   8,   _,  12,   1,  23,  16,   _,   _,   9,   _,   6,   _,   _,   _,  11,   _,   _,  15,   _,   2,   5,   _,
   _,  12,  14,   _,   _,   _,   4,   _,   2,  22,   3,  25,   1,   _,  16,   _,   _,   _,   _,   _,   7,   _,   _,   _,  24,
  22,   3,  13,  20,   _,   _,   _,   _,  19,   _,   _,   _,   _,   _,   _,   _,   8,   4,   2,  23,   _,   5,   _,  18,  16,
   _,   _,   _,  16,  23,   _,   _,  13,   7,  18,  10,  14,  20,   _,   _,  12,   _,   _,  24,  22,   3,   _,   _,  25,   _,
   _,   _,   4,   _,  10,  16,   _,   5,  25,  23,  13,  12,  21,   7,  19,   _,  11,  20,   9,   _,   _,   _,  14,   2,  22,
   _,   _,   _,   1,   _,   _,   _,  24,  10,  17,   _,   _,  23,   _,   6,  16,   _,   _,   _,   _,  13,  12,   _,   _,  20,
   _,   _,  15,   3,  19,   _,   _,   _,   6,   8,   5,  16,   2,   _,  22,   _,   _,  23,  11,   _,   _,   _,   _,   4,  10,
   _,   4,  12,   7,   _,  21,   _,   _,  23,   _,   _,   3,  10,   _,   _,   8,  18,   _,   6,   _,   5,   _,   _,  13,  15,
  20,   _,  23,   _,   _,   _,   3,  16,  17,  10,   _,   7,  13,   _,   9,  15,   4,   _,  22,   _,  19,   _,  25,   8,   _,
  17,   _,  10,   _,   _,  15,   2,   1,   _,   5,   _,   _,   8,  14,   _,   _,  16,  13,   _,   _,   _,   7,   _,   _,   _,
   _,  25,   6,  13,   8,  20,  11,   _,  14,   _,  15,   _,  12,  18,   _,   _,   3,  10,   7,   _,   _,  22,   _,  24,  21,
   _,  17,  25,  18,  16,   _,   _,  19,   _,  13,   _,   5,   _,   _,   _,  24,   _,   _,  20,   _,   4,   6,   _,   _,   9,
  13,   _,   _,  10,  22,   _,  25,  15,   _,   _,   9,   _,  24,  11,   _,   _,  12,   1,   3,  16,   _,  18,   5,   7,   _,
   _,  14,   5,   2,  15,  17,  22,   _,   _,   _,  19,   _,   _,   3,  12,   9,   _,  25,  23,   _,   _,  10,   _,  20,   1,
  12,   _,  24,   _,  11,   _,   _,   9,  21,   _,   _,   _,   _,  25,   _,   6,   _,   _,   _,   _,   2,  13,   _,   _,   8,
   4,   1,   _,   6,   9,   _,   _,   _,  24,  11,  18,   2,   _,   _,  13,   _,   _,   _,   _,   _,   _,  25,   _,   _,   _
]);

n = 25;
